
<<< setup


<<< generate

Tried aggregator 2 times.
MIP Presolve eliminated 41803 rows and 24148 columns.
MIP Presolve modified 57709 coefficients.
Aggregator did 14817 substitutions.
Reduced MIP has 15278 rows, 11073 columns, and 70587 nonzeros.
Reduced MIP has 11046 binaries, 0 generals, 0 SOSs, and 0 indicators.
Probing fixed 404 vars, tightened 0 bounds.
Probing time =    0.72 sec.
Tried aggregator 1 time.
MIP Presolve eliminated 685 rows and 404 columns.
MIP Presolve modified 1 coefficients.
Reduced MIP has 14593 rows, 10669 columns, and 67569 nonzeros.
Reduced MIP has 10642 binaries, 0 generals, 0 SOSs, and 0 indicators.
Presolve time =    1.13 sec.
Probing time =    0.03 sec.
Clique table members: 37098.
MIP emphasis: balance optimality and feasibility.
MIP search method: dynamic search.
Parallel mode: deterministic, using up to 4 threads.
Root relaxation solution time =    0.74 sec.

        Nodes                                         Cuts/
   Node  Left     Objective  IInf  Best Integer    Best Bound    ItCnt     Gap

*     0+    0                            0.0000                     15     --- 
      0     0    50182.2981   886        0.0000    50182.2981       15     --- 
      0     0    49501.2164  1044        0.0000    Cuts: 3471    10763     --- 
      0     0    48820.1348  1459        0.0000    Cuts: 3748    24204     --- 
      0     0    47919.2074  1568        0.0000    Cuts: 3748    38870     --- 
      0     0    47919.2074  1547        0.0000    Cuts: 3748    55421     --- 
      0     0    47919.2074  1553        0.0000    Cuts: 3748    70080     --- 
      0     0    47919.2074   696        0.0000    Cuts: 1012    73073     --- 
      0     0    47699.3617  1165        0.0000    Cuts: 3748    79819     --- 
      0     0    47381.3198  1368        0.0000    Cuts: 3748    86739     --- 
      0     0    47018.2801  1505        0.0000    Cuts: 3748    96354     --- 
      0     0    47018.2801  1472        0.0000    Cuts: 3748   113385     --- 
      0     0    47018.2801  1820        0.0000    Cuts: 3748   123826     --- 
      0     2    47018.2801   447        0.0000    47018.2801   131250     --- 
Elapsed real time = 281.75 sec. (tree size =  0.01 MB, solutions = 1)
      1     3    47018.2801   656        0.0000    47018.2801   139880     --- 
      2     4    47018.2801   694        0.0000    47018.2801   142504     --- 
      3     5    47018.2801   778        0.0000    47018.2801   147120     --- 
      4     6    47018.2801   674        0.0000    47018.2801   147777     --- 
      5     7    47018.2801   801        0.0000    47018.2801   152323     --- 
      8    10    47018.2801   877        0.0000    47018.2801   159860     --- 
     11    13    47018.2801   792        0.0000    47018.2801   172290     --- 
     14    16    47018.2801   821        0.0000    47018.2801   184596     --- 
     20    22    47018.2801   646        0.0000    47018.2801   195298     --- 
     31    31    infeasible              0.0000    47018.2801   204956     --- 
Elapsed real time = 304.09 sec. (tree size =  0.21 MB, solutions = 1)
     38    38    47018.2801   699        0.0000    47018.2801   215518     --- 
     52    42    47018.2801   690        0.0000    47018.2801   230280     --- 
     65    47    infeasible              0.0000    47018.2801   246294     --- 
     91    67    47018.2801   642        0.0000    47018.2801   256962     --- 
    105    77    infeasible              0.0000    47018.2801   264853     --- 
    125    89    47018.2801   643        0.0000    47018.2801   278321     --- 
    169   115    infeasible              0.0000    47018.2801   306432     --- 
    189   123    infeasible              0.0000    47018.2801   313360     --- 
    197   127    47008.4002   572        0.0000    47018.2801   314882     --- 
    225   139    43401.9825   471        0.0000    47018.2801   325686     --- 
Elapsed real time = 321.83 sec. (tree size =  1.11 MB, solutions = 1)
    253   153    infeasible              0.0000    47018.2801   339989     --- 
    273   167    45669.4610   560        0.0000    47018.2801   347843     --- 
    287   171    infeasible              0.0000    47018.2801   357484     --- 
    311   165    infeasible              0.0000    47018.2801   376635     --- 
    319   159    47018.2801   575        0.0000    47018.2801   389683     --- 
    348   154    45151.9648   589        0.0000    47018.2801   413105     --- 
    361   149    47018.2801   760        0.0000    47018.2801   420284     --- 
    371   145    46575.1682   657        0.0000    47018.2801   426250     --- 
    377   145    47018.2801   793        0.0000    47018.2801   437381     --- 
    387   151    45395.8902   856        0.0000    47018.2801   450050     --- 
Elapsed real time = 420.94 sec. (tree size =  2.28 MB, solutions = 1)
    399   161    47018.2801   660        0.0000    47018.2801   463857     --- 
    454   196    47018.2801   788        0.0000    47018.2801   476760     --- 
    479   207    47018.2801   641        0.0000    47018.2801   488218     --- 
    544   252    infeasible              0.0000    47018.2801   508181     --- 
    548   256    47018.2801   863        0.0000    47018.2801   514525     --- 
    683   391    47018.2801   791        0.0000    47018.2801   530742     --- 
    701   401    47018.2801   618        0.0000    47018.2801   534996     --- 
    805   501    47018.2801   680        0.0000    47018.2801   549139     --- 
    817   509    infeasible              0.0000    47018.2801   552628     --- 
    921   613    47018.2801   851        0.0000    47018.2801   562076     --- 
Elapsed real time = 568.13 sec. (tree size = 12.45 MB, solutions = 1)
    974   666    47018.2801   751        0.0000    47018.2801   565457     --- 
    976   666    infeasible              0.0000    47018.2801   573357     --- 
    996   682    infeasible              0.0000    47018.2801   576431     --- 
   1114   798    46272.6194   643        0.0000    47018.2801   590646     --- 
   1150   828    infeasible              0.0000    47018.2801   595610     --- 
   1206   884    47018.2801   748        0.0000    47018.2801   598984     --- 
   1330  1008    47018.2801   414        0.0000    47018.2801   663177     --- 
   1331  1009    47018.2801   902        0.0000    47018.2801   672088     --- 
   1332  1009    47018.2801   945        0.0000    47018.2801   680618     --- 
   1333  1010    47018.2801   816        0.0000    47018.2801   687864     --- 
Elapsed real time = 769.53 sec. (tree size = 30.77 MB, solutions = 1)
   1334  1011    47018.2801  1274        0.0000    47018.2801   698050     --- 
   1335  1012    47018.2801   861        0.0000    47018.2801   706371     --- 
   1336  1012    47018.2801   841        0.0000    47018.2801   713074     --- 
   1337  1012    47018.2801   936        0.0000    47018.2801   719587     --- 
   1339  1014    47018.2801   860        0.0000    47018.2801   719879     --- 
   1340   921    infeasible              0.0000    47018.2801   728083     --- 
   1343   923    47018.2801   892        0.0000    47018.2801   738144     --- 
   1350   926    47018.2801   707        0.0000    47018.2801   746962     --- 
   1354   774    infeasible              0.0000    47018.2801   749814     --- 
   1358   775    47018.2801   813        0.0000    47018.2801   752875     --- 
Elapsed real time = 866.78 sec. (tree size = 23.49 MB, solutions = 1)
   1362   779    47018.2801   817        0.0000    47018.2801   753425     --- 
   1363   780    47018.2801   725        0.0000    47018.2801   753443     --- 
   1382   791    47018.2801   668        0.0000    47018.2801   757649     --- 
   1386   793    46740.1261   650        0.0000    47018.2801   761354     --- 
   1390   795    47018.2801   814        0.0000    47018.2801   766396     --- 
   1396   781    47018.2801   811        0.0000    47018.2801   766863     --- 
   1408   741    46053.5425   623        0.0000    47018.2801   777376     --- 
   1414   732    47018.2801   643        0.0000    47018.2801   777540     --- 
   1456   705    47018.2801   743        0.0000    47018.2801   791592     --- 
   1465   693    44951.6134   667        0.0000    47018.2801   794743     --- 
Elapsed real time = 903.86 sec. (tree size = 22.41 MB, solutions = 1)
   1473   690    43867.6062   642        0.0000    47018.2801   795934     --- 
   1489   652    infeasible              0.0000    47018.2801   812018     --- 
   1496   648    47018.2801   744        0.0000    47018.2801   813949     --- 
   1503   632    47018.2801   726        0.0000    47018.2801   821906     --- 
   1510   616    infeasible              0.0000    47018.2801   826068     --- 
   1518   615    47018.2801   681        0.0000    47018.2801   828119     --- 
   1573   560    47018.2801   661        0.0000    47018.2801   851823     --- 
   1577   563    47018.2801   629        0.0000    47018.2801   854661     --- 
   1596   543    infeasible              0.0000    47018.2801   866819     --- 
   1597   544    47018.2801   652        0.0000    47018.2801   866900     --- 
Elapsed real time = 969.95 sec. (tree size = 22.40 MB, solutions = 1)
   1617   526    46947.7100   669        0.0000    47018.2801   879700     --- 
   1631   500    47018.2801   653        0.0000    47018.2801   886212     --- 
   1684   481    infeasible              0.0000    47018.2801   897773     --- 
   1696   469    47018.2801   646        0.0000    47018.2801   902060     --- 
   1697   470    47018.2801   657        0.0000    47018.2801   902199     --- 
   1739   428    47018.2801   652        0.0000    47018.2801   916065     --- 
   1751   413    47018.2801   653        0.0000    47018.2801   920310     --- 
   1755   408    infeasible              0.0000    47018.2801   924560     --- 
   1758   403    47018.2801   657        0.0000    47018.2801   927591     --- 
   1784   381    46236.7727   627        0.0000    47018.2801   940614     --- 
Elapsed real time = 1102.84 sec. (tree size = 23.08 MB, solutions = 1)
   1793   372    47018.2801   618        0.0000    47018.2801   944174     --- 
   1801   375    46804.1974   637        0.0000    47018.2801   948885     --- 
   1839   364    47018.2801   589        0.0000    47018.2801   963552     --- 
   1853   362    47018.2801   591        0.0000    47018.2801   965700     --- 
   1870   350    47018.2801   601        0.0000    47018.2801   971433     --- 
   1875   346    47018.2801   685        0.0000    47018.2801   972518     --- 
   1887   339    46236.7727   565        0.0000    47018.2801   976639     --- 
   1907   325    infeasible              0.0000    47018.2801   983913     --- 
   1909   326    47018.2801   706        0.0000    47018.2801   984093     --- 
   1980   294    46183.8183   528        0.0000    47018.2801  1009519     --- 
Elapsed real time = 1180.33 sec. (tree size = 22.14 MB, solutions = 1)
   2035   270    47018.2801   614        0.0000    47018.2801  1038737     --- 
   2041   273    47018.2801   665        0.0000    47018.2801  1044964     --- 

Clique cuts applied:  106
Implied bound cuts applied:  118
Flow cuts applied:  16
Mixed integer rounding cuts applied:  34
Zero-half cuts applied:  10

Root node processing (before b&c):
  Real time             =  280.47
Parallel b&c, 4 threads:
  Real time             =  918.42
  Sync time (average)   =    0.00
  Wait time (average)   =    0.00
                          -------
Total (root+branch&cut) = 1198.89 sec.

<<< solve


OBJECTIVE: 0

<<< post process


<<< done

